# seed = 1254829604

param N := 2;

param M := 2;

param Umax := 100.000000;

param: C :=
1	12712.000000
2	13088.000000
;

param: a :=
1	0.152216
2	0.2
;

param: b :=
1	44.742557
2	1.0
;

param: c :=
1	72.273751
2	50.0
;

param: d :=
1	-21.229801
2	-100.0
;

param: weight :=
1	4.000000
2	44.000000
;

param: U :=
1	100.000000
2	100.000000
;

